Version identifier: 22.1.1.0 | 2022-11-28 | 9160aff4d
CPXPARAM_Threads                                 1
CPXPARAM_MIP_Strategy_VariableSelect             3
CPXPARAM_TimeLimit                               599.99999293400003
1 of 1 MIP starts provided solutions.
MIP start 'm1' defined initial solution with objective 158.0000.
Tried aggregator 1 time.
MIP Presolve eliminated 421 rows and 1218 columns.
Reduced MIP has 2432 rows, 3654 columns, and 33548 nonzeros.
Reduced MIP has 3654 binaries, 0 generals, 0 SOSs, and 0 indicators.
Presolve time = 0.02 sec. (21.72 ticks)
Probing time = 0.00 sec. (2.89 ticks)
Tried aggregator 1 time.
Detecting symmetries...
Reduced MIP has 2432 rows, 3654 columns, and 33548 nonzeros.
Reduced MIP has 3654 binaries, 0 generals, 0 SOSs, and 0 indicators.
Presolve time = 0.01 sec. (18.74 ticks)
Probing time = 0.00 sec. (2.89 ticks)
Clique table members: 1212.
MIP emphasis: balance optimality and feasibility.
MIP search method: dynamic search.
Parallel mode: none, using 1 thread.
Root relaxation solution time = 0.03 sec. (43.57 ticks)

        Nodes                                         Cuts/
   Node  Left     Objective  IInf  Best Integer    Best Bound    ItCnt     Gap

*     0+    0                          158.0000     3654.0000              --- 
      0     0      406.0000    99      158.0000      406.0000     1232  156.96%
*     0+    0                          406.0000      406.0000             0.00%
      0     0        cutoff            406.0000      406.0000     1232    0.00%
Elapsed time = 0.18 sec. (291.00 ticks, tree = 0.01 MB, solutions = 2)

Root node processing (before b&c):
  Real time             =    0.18 sec. (291.19 ticks)
Sequential b&c:
  Real time             =    0.00 sec. (0.00 ticks)
                          ------------
Total (root+branch&cut) =    0.18 sec. (291.19 ticks)
Primal:	406
Dual:	406
Status:	Optimal
Time:	0.2
Sequence:
	0
	9
	9
	0
	5
	5
	9
	0
	5
	9
	0
	5
	5
	9
	9
	5
	9
	5
	9
	9
	9
	9
	9
	8
	9
	9
	8
	9
	9
	0
	9
	9
	8
	9
	9
	9
	8
	9
	9
	8
	9
	9
	0
	9
	9
	0
	9
	9
	8
	9
	4
	4
	0
	4
	4
	0
	4
	9
	0
	4
	4
	0
	4
	4
	0
	4
	5
	0
	1
	9
	5
	0
	5
	9
	5
	0
	5
	9
	0
	5
	5
	9
	9
	0
	5
	9
	9
	5
	0
	5
	9
	5
	5
	9
	0
	9
	9
	9
	0
	9
	9
	9
	0
	9
	5
	0
	9
	9
	0
	9
	9
	9
	9
	0
	9
	5
	1
	0
	9
	1
	0
	9
	9
	0
	9
	9
	9
	0
	9
	5
	0
	5
	9
	0
	9
	5
	5
	9
	5
	9
	9
	0
	5
	9
	5
	5
	0
	4
	5
	0
	9
	9
	0
	9
	9
	9
	5
	0
	5
	9
	0
	5
	9
	0
	5
	5
	9
	5
	0
	9
	9
	8
	5
	9
	0
	9
	9
	0
	9
	5
	1
	8
	9
	5
	6
	0
	9
	9
	9
	0
	9
	9
	0
	9
	9
	9
	0
	9
	9
	0
	9
	9
	0
	9
	9
	0
	9
	9
	8
	9
	9
	9
	9
	9
	0
	9
	9
	9
	9
	9
	9
	9
	0
	5
	5
	9
	0
	9
	9
	0
	5
	9
	0
	4
	5
	0
	1
	9
	9
	0
	9
	9
	0
	1
	1
	8
	9
	3
	0
	5
	9
	0
	5
	3
	9
	0
	9
	5
	0
	9
	9
	0
	3
	9
	0
	9
	1
	0
	5
	9
	0
	3
	4
	5
	0
	9
	5
	5
	9
	0
	5
	5
	2
	5
	5
	0
	9
	5
	0
	5
	9
	5
	5
	0
	4
	1
	0
	5
	9
	9
	0
	9
	1
	0
	5
	9
	1
	1
	8
	1
	9
	0
	5
	4
	9
	0
	9
	5
	5
	9
	0
	9
	1
	1
	1
	2
	1
	3
	8
	5
	9
	0
	5
	4
	0
	1
	9
	1
	8
	1
	4
	0
	1
	1
	9
	0
	1
	1
	8
	3
	5
	9
	0
	1
	1
	8
	1
	1
	1
	9
	0
	1
	9
	1
	0
	1
	9
	0
	5
	1
	8
	1
	1
	0
	9
	5
	5
	0
	9
	5
	0
	9
	5
	0
	5
	9
	0
	5
	9
	3
	0
	9
	1
	1
	0
	9
	5
	0
	5
	9
	0
	1
	5
	9
	0
	5
